
Gurobi 7.5.2 (mac64, Python) logging started Sat Mar  9 16:11:42 2019


Gurobi 7.5.2 (mac64, Python) logging started Sat Mar  9 16:11:49 2019


Gurobi 7.5.2 (mac64, Python) logging started Sat Mar  9 16:11:50 2019


Gurobi 7.5.2 (mac64, Python) logging started Sat Mar  9 16:11:50 2019


Gurobi 7.5.2 (mac64, Python) logging started Sat Mar  9 16:11:51 2019


Gurobi 7.5.2 (mac64, Python) logging started Sat Mar  9 16:11:51 2019


Gurobi 7.5.2 (mac64, Python) logging started Sat Mar  9 16:11:51 2019


Gurobi 7.5.2 (mac64, Python) logging started Sat Mar  9 16:11:51 2019


Gurobi 7.5.2 (mac64, Python) logging started Sat Mar  9 16:11:51 2019

